SDVRPTW/Cordeau2001/PR08.vrp
NAME: PR08
COMMENT: Based on Cordeau and Laporte (2001).
TYPE: SDVRPTW
EDGE_WEIGHT_TYPE: EUC_2D
DIMENSION: 145
VEHICLES: 18
NODE_COORD_SECTION
1	-10.674	16.16
2	-2.374	-56.158
3	-25.366	-51.691
4	20.459	-52.02
5	-68.463	-44.293
6	51.794	-9.241
7	19.818	74.152
8	52.795	0.311
9	12.976	-59.015
10	11.871	24.915
11	68.738	-50.494
12	-22.046	-62.946
13	-49.896	-29.114
14	-13.593	27.863
15	-20.868	-27.332
16	81.989	-18.14
17	-86.163	72.308
18	-98.157	-15.424
19	-59.534	11.157
20	31.268	31.903
21	-8.502	-99.738
22	68.225	28.65
23	43.201	-21.716
24	1.892	18.744
25	39.105	-19.037
26	-37.854	82.397
27	54.102	27.997
28	-60.242	1.483
29	-85.181	-8.716
30	-48.267	6.116
31	-26.855	16.559
32	-72.589	96.625
33	46.869	8.282
34	49.261	35.828
35	-32.465	39.05
36	22.931	-2.979
37	-92.95	25.201
38	-33.472	38.977
39	-56.763	55.975
40	56.39	17.596
41	22.302	-16.028
42	-8.295	65.088
43	-63.043	12.299
44	-86.975	52.936
45	-70.734	8.746
46	-36.572	-8.435
47	-24.951	-3.9
48	47.26	-29.51
49	-63.031	0.684
50	-13.068	28.094
51	-45.465	65.552
52	70.374	-15.564
53	93.805	16.101
54	-13.397	72.491
55	-27.136	-0.055
56	-13.177	50.763
57	31.781	2.045
58	38.904	19.312
59	-36.139	41.943
60	4.498	-10.706
61	-13.214	28.632
62	38.287	-7.281
63	-25.69	18.536
64	-27.454	6.049
65	-2.1	21.6
66	0.403	84.155
67	0.708	27.661
68	77.692	-10.785
69	-26.147	25.952
70	-18.665	13.135
71	62.195	-10.602
72	-73.987	37.524
73	36.78	-6.824
74	-39.191	56.683
75	-32.471	-41.089
76	-24.951	-7.501
77	-4.443	59.833
78	-44.989	0.69
79	-69.299	-15.179
80	-71.448	19.934
81	62.097	1.562
82	-8.246	-20.026
83	76.117	4.23
84	1.044	16.125
85	-16.962	26.697
86	-19.781	-5.804
87	-3.168	24.762
88	-5.243	86.212
89	-31.915	50.098
90	-30.573	-44.318
91	17.926	-31.097
92	51.727	38.739
93	-3.54	11.426
94	-42.432	30.896
95	-36.56	-3.644
96	-37.054	59.918
97	-18.976	85.504
98	-27.539	23.267
99	-42.212	83.582
100	40.625	-1.154
101	8.185	67.072
102	28.564	92.499
103	-50.439	71.295
104	63.934	-12.543
105	-5.463	16.992
106	-74.139	13.538
107	-9.454	-24.591
108	9.814	-11.969
109	52.332	-41.431
110	37.86	-10.37
111	-46.783	4.974
112	43.732	4.797
113	9.857	-10.901
114	11.646	28.143
115	-69.403	20.288
116	44.22	-30.035
117	10.12	31.567
118	-59.918	14.838
119	53.375	-66.461
120	-5.597	40.9
121	-19.989	67.34
122	-8.807	44.873
123	-38.519	53.07
124	-24.371	29.34
125	-10.962	-10.962
126	48.309	0.159
127	-34.357	33.667
128	-49.359	92.407
129	-92.426	-27.319
130	-66.785	0.879
131	-16.174	56.451
132	-12.988	14.661
133	-37.244	75.409
134	-65.698	-84.882
135	59.088	-20.795
136	26.086	20.355
137	49.17	-13.33
138	-94.25	-28.485
139	-6.329	10.913
140	-42.163	26.801
141	32.715	-21.869
142	-27.362	46.771
143	-29.883	-5.585
144	-8.942	2.313
145	80.548	21.252
DEMAND_SECTION
1	0
2	23
3	13
4	15
5	21
6	1
7	21
8	7
9	12
10	23
11	9
12	5
13	18
14	5
15	25
16	9
17	18
18	25
19	11
20	5
21	11
22	16
23	9
24	15
25	8
26	6
27	9
28	14
29	19
30	21
31	15
32	23
33	8
34	1
35	3
36	12
37	25
38	11
39	1
40	14
41	15
42	15
43	8
44	20
45	12
46	11
47	25
48	9
49	10
50	14
51	13
52	19
53	5
54	10
55	2
56	12
57	15
58	4
59	13
60	15
61	5
62	15
63	3
64	3
65	3
66	22
67	1
68	9
69	6
70	9
71	22
72	12
73	23
74	14
75	25
76	19
77	7
78	12
79	18
80	21
81	15
82	12
83	18
84	24
85	23
86	8
87	21
88	6
89	17
90	9
91	20
92	6
93	9
94	12
95	10
96	18
97	20
98	12
99	3
100	14
101	17
102	23
103	3
104	10
105	3
106	2
107	1
108	13
109	9
110	11
111	18
112	8
113	25
114	5
115	18
116	4
117	24
118	20
119	24
120	11
121	17
122	13
123	5
124	24
125	17
126	1
127	20
128	18
129	12
130	13
131	13
132	16
133	14
134	12
135	24
136	11
137	10
138	24
139	21
140	12
141	1
142	22
143	17
144	8
145	11
SERVICE_TIME_SECTION
1	0
2	3
3	2
4	8
5	21
6	11
7	10
8	4
9	13
10	13
11	12
12	4
13	6
14	25
15	18
16	11
17	9
18	9
19	5
20	2
21	18
22	25
23	5
24	20
25	3
26	13
27	18
28	22
29	14
30	8
31	10
32	13
33	13
34	14
35	20
36	24
37	13
38	13
39	21
40	1
41	17
42	16
43	20
44	25
45	7
46	9
47	15
48	19
49	4
50	17
51	2
52	20
53	8
54	23
55	2
56	21
57	21
58	11
59	2
60	22
61	20
62	25
63	22
64	15
65	9
66	22
67	20
68	22
69	11
70	22
71	10
72	20
73	21
74	21
75	11
76	15
77	12
78	1
79	1
80	21
81	23
82	10
83	11
84	13
85	13
86	23
87	14
88	7
89	1
90	23
91	19
92	25
93	10
94	19
95	23
96	20
97	15
98	4
99	23
100	12
101	7
102	21
103	13
104	10
105	3
106	22
107	11
108	12
109	11
110	5
111	16
112	3
113	2
114	19
115	9
116	21
117	21
118	24
119	7
120	1
121	11
122	20
123	1
124	17
125	3
126	7
127	15
128	9
129	15
130	10
131	24
132	8
133	14
134	8
135	14
136	16
137	1
138	16
139	7
140	20
141	12
142	3
143	12
144	4
145	18
TIME_WINDOW_SECTION
1	0	1000
2	221	349
3	384	551
4	165	306
5	194	366
6	343	500
7	422	576
8	334	444
9	260	412
10	95	237
11	77	254
12	66	179
13	243	361
14	225	358
15	95	213
16	384	517
17	459	591
18	463	619
19	406	562
20	92	206
21	71	169
22	471	613
23	177	337
24	281	409
25	477	637
26	335	496
27	325	422
28	372	507
29	239	373
30	148	300
31	109	228
32	414	547
33	466	626
34	397	527
35	379	520
36	389	548
37	477	588
38	185	355
39	479	655
40	296	446
41	139	261
42	445	585
43	135	295
44	193	293
45	466	636
46	383	487
47	450	624
48	182	353
49	394	521
50	167	301
51	229	383
52	342	449
53	210	329
54	201	349
55	228	324
56	187	317
57	325	440
58	352	494
59	214	314
60	175	329
61	399	574
62	381	483
63	169	271
64	225	339
65	106	205
66	320	445
67	186	356
68	275	429
69	260	368
70	380	504
71	307	421
72	380	503
73	104	213
74	386	492
75	313	444
76	321	414
77	442	613
78	416	547
79	300	416
80	436	546
81	399	532
82	132	244
83	361	463
84	290	436
85	446	588
86	154	264
87	219	317
88	238	337
89	318	470
90	447	563
91	64	201
92	410	584
93	252	422
94	333	475
95	78	173
96	66	200
97	60	237
98	125	286
99	329	497
100	263	380
101	263	440
102	198	371
103	193	317
104	160	289
105	221	318
106	422	548
107	242	368
108	417	536
109	418	584
110	382	518
111	300	433
112	245	416
113	67	235
114	389	506
115	383	545
116	270	379
117	135	293
118	336	499
119	335	456
120	322	432
121	418	560
122	181	326
123	244	377
124	97	206
125	360	502
126	379	548
127	386	559
128	195	319
129	233	350
130	160	313
131	282	374
132	161	334
133	158	262
134	379	540
135	216	352
136	257	386
137	345	459
138	426	572
139	186	324
140	238	392
141	433	588
142	128	300
143	476	575
144	179	351
145	460	574
CAPACITY_SECTION
1	125
2	125
3	125
4	150
5	150
6	150
7	175
8	175
9	175
10	200
11	200
12	200
13	225
14	225
15	225
16	250
17	250
18	250
VEHICLES_MAX_DURATION_SECTION
1	500
2	500
3	500
4	500
5	500
6	500
7	500
8	500
9	500
10	500
11	500
12	500
13	500
14	500
15	500
16	500
17	500
18	500
VEHICLES_ALLOWED_CLIENTS_SECTION
1	2	3	4	5	6	7	8	9	10	11	12	13	14	15	16	17	18	19	20	21	22	23	24	25	26	27	28	29	30	31	32	33	34	35	36	37	38	39	40	41	42	44	45	47	48	50	51	52	54	55	57	60	61	62	64	65	66	68	71	72	73	75	79	80	81	82	83	84	85	86	87	92	96	97	99	100	101	105	107	111	113	117	119	128	134	135	144
2	2	3	4	5	6	7	8	9	10	11	12	13	14	15	16	17	18	19	20	21	22	23	24	25	26	27	28	29	30	31	32	33	34	35	36	37	38	39	40	41	42	44	45	47	48	50	51	52	54	55	57	60	61	62	64	65	66	68	71	72	73	75	79	80	81	82	83	84	85	86	87	92	96	97	99	100	101	105	107	111	113	117	119	128	134	135	144
3	2	3	4	5	6	7	8	9	10	11	12	13	14	15	16	17	18	19	20	21	22	23	24	25	26	27	28	29	30	31	32	33	34	35	36	37	38	39	40	41	42	44	45	47	48	50	51	52	54	55	57	60	61	62	64	65	66	68	71	72	73	75	79	80	81	82	83	84	85	86	87	92	96	97	99	100	101	105	107	111	113	117	119	128	134	135	144
4	2	3	4	5	6	7	8	9	10	11	12	13	14	15	16	17	18	19	20	21	22	23	24	25	26	27	28	29	30	31	32	33	34	35	36	37	38	39	41	42	43	44	46	47	48	49	50	52	54	55	56	57	58	59	60	62	66	68	71	72	76	77	79	80	81	82	84	85	87	92	94	95	96	97	98	99	100	101	102	103	104	105	109	116	121	137	140	141
5	2	3	4	5	6	7	8	9	10	11	12	13	14	15	16	17	18	19	20	21	22	23	24	25	26	27	28	29	30	31	32	33	34	35	36	37	38	39	41	42	43	44	46	47	48	49	50	52	54	55	56	57	58	59	60	62	66	68	71	72	76	77	79	80	81	82	84	85	87	92	94	95	96	97	98	99	100	101	102	103	104	105	109	116	121	137	140	141
6	2	3	4	5	6	7	8	9	10	11	12	13	14	15	16	17	18	19	20	21	22	23	24	25	26	27	28	29	30	31	32	33	34	35	36	37	38	39	41	42	43	44	46	47	48	49	50	52	54	55	56	57	58	59	60	62	66	68	71	72	76	77	79	80	81	82	84	85	87	92	94	95	96	97	98	99	100	101	102	103	104	105	109	116	121	137	140	141
7	2	3	4	5	6	7	8	9	10	11	12	13	14	15	16	17	18	19	20	21	22	23	24	25	26	27	28	29	30	31	32	33	34	35	36	37	38	39	43	44	46	49	52	53	56	57	58	59	62	66	67	76	77	81	84	85	89	91	92	94	95	96	97	98	101	102	103	104	106	108	109	122	127	130	133	138	139
8	2	3	4	5	6	7	8	9	10	11	12	13	14	15	16	17	18	19	20	21	22	23	24	25	26	27	28	29	30	31	32	33	34	35	36	37	38	39	43	44	46	49	52	53	56	57	58	59	62	66	67	76	77	81	84	85	89	91	92	94	95	96	97	98	101	102	103	104	106	108	109	122	127	130	133	138	139
9	2	3	4	5	6	7	8	9	10	11	12	13	14	15	16	17	18	19	20	21	22	23	24	25	26	27	28	29	30	31	32	33	34	35	36	37	38	39	43	44	46	49	52	53	56	57	58	59	62	66	67	76	77	81	84	85	89	91	92	94	95	96	97	98	101	102	103	104	106	108	109	122	127	130	133	138	139
10	2	3	4	5	6	7	8	9	10	11	12	13	14	15	16	17	18	19	20	21	22	23	24	25	26	27	28	29	30	31	32	33	34	35	36	37	43	46	49	53	56	58	59	63	67	69	70	74	76	77	78	88	89	90	91	93	94	95	98	102	103	104	106	108	109	143
11	2	3	4	5	6	7	8	9	10	11	12	13	14	15	16	17	18	19	20	21	22	23	24	25	26	27	28	29	30	31	32	33	34	35	36	37	43	46	49	53	56	58	59	63	67	69	70	74	76	77	78	88	89	90	91	93	94	95	98	102	103	104	106	108	109	143
12	2	3	4	5	6	7	8	9	10	11	12	13	14	15	16	17	18	19	20	21	22	23	24	25	26	27	28	29	30	31	32	33	34	35	36	37	43	46	49	53	56	58	59	63	67	69	70	74	76	77	78	88	89	90	91	93	94	95	98	102	103	104	106	108	109	143
13	2	3	4	5	6	7	8	9	10	11	12	13	14	15	16	17	18	19	20	21	22	23	24	25	26	27	28	29	30	31	32	33	34	35	36	37	40	45	51	53	61	63	64	65	67	69	70	73	74	75	78	83	86	88	89	90	91	93	106	107	108	110	112	114	120	124	125	126	129	131	142	145
14	2	3	4	5	6	7	8	9	10	11	12	13	14	15	16	17	18	19	20	21	22	23	24	25	26	27	28	29	30	31	32	33	34	35	36	37	40	45	51	53	61	63	64	65	67	69	70	73	74	75	78	83	86	88	89	90	91	93	106	107	108	110	112	114	120	124	125	126	129	131	142	145
15	2	3	4	5	6	7	8	9	10	11	12	13	14	15	16	17	18	19	20	21	22	23	24	25	26	27	28	29	30	31	32	33	34	35	36	37	40	45	51	53	61	63	64	65	67	69	70	73	74	75	78	83	86	88	89	90	91	93	106	107	108	110	112	114	120	124	125	126	129	131	142	145
16	2	3	4	5	6	7	8	9	10	11	12	13	14	15	16	17	18	19	20	21	22	23	24	25	26	27	28	29	30	31	32	33	34	35	36	37	40	41	42	45	47	48	50	51	54	55	60	61	63	64	65	68	69	70	71	72	73	74	75	78	79	80	82	83	86	87	88	90	93	99	100	105	107	115	118	123	132	136
17	2	3	4	5	6	7	8	9	10	11	12	13	14	15	16	17	18	19	20	21	22	23	24	25	26	27	28	29	30	31	32	33	34	35	36	37	40	41	42	45	47	48	50	51	54	55	60	61	63	64	65	68	69	70	71	72	73	74	75	78	79	80	82	83	86	87	88	90	93	99	100	105	107	115	118	123	132	136
18	2	3	4	5	6	7	8	9	10	11	12	13	14	15	16	17	18	19	20	21	22	23	24	25	26	27	28	29	30	31	32	33	34	35	36	37	40	41	42	45	47	48	50	51	54	55	60	61	63	64	65	68	69	70	71	72	73	74	75	78	79	80	82	83	86	87	88	90	93	99	100	105	107	115	118	123	132	136
EOF
