SDVRPTW/PR08.sol
Route #1: 143 112 22 134 118 5 7 80 91 33
Route #2: 63 54 29 110 27 78 133 2
Route #3: 64 116 96 127 31 98 25 60
Route #4: 40 47 10 103 70 51 67 15 108 24 140 35
Route #5: 11 20 1 8 3 115 136 99 61 56 57
Route #6: 104 83 86 13 139 93 34 120 41 76
Route #7: 97 37 58 42 129 48 137 17 105 18
Route #8: 95 132 102 43 16 38 126 84
Route #9: 138 66 121 55 100 101 65 6
Route #10: 94 45 75 142
Route #11:
Route #12:
Route #13: 30 62 123 68 141 88 130 119 113
Route #14: 85 14 12 4 128 28 77 124 107 109 125 32
Route #15: 90 72 111 52 82 39 26 144 21
Route #16: 131 59 81 106 74 89 46
Route #17: 9 19 135 23 92 69
Route #18: 49 53 87 50 122 73 71 117 114 79 36 44
Cost: 3873392
